*SPEF "ieee 1481-1999"
*DESIGN "counter_top"
*DATE "09:46:30 Wednesday August 26, 2026"
*VENDOR "The OpenROAD Project"
*PROGRAM "OpenROAD"
*VERSION "26Q1-1024-gdcf36133a"
*DESIGN_FLOW "NAME_SCOPE LOCAL" "PIN_CAP NONE"
*DIVIDER /
*DELIMITER :
*BUS_DELIMITER []
*T_UNIT 1 NS
*C_UNIT 1 PF
*R_UNIT 1 OHM
*L_UNIT 1 HENRY

*NAME_MAP
*3 clock_i
*4 counter_value_o[0]
*5 counter_value_o[1]
*6 counter_value_o[2]
*7 counter_value_o[3]
*8 counter_value_o[4]
*9 counter_value_o[5]
*10 counter_value_o[6]
*11 counter_value_o[7]
*12 enable_i
*13 reset_n_i
*14 _00_
*15 _01_
*16 _02_
*17 _03_
*18 _04_
*19 _05_
*20 _06_
*21 _07_
*22 _08_
*23 _09_
*24 _10_
*25 _11_
*26 _12_
*27 _13_
*28 _14_
*29 _15_
*30 _16_
*31 _17_
*32 _18_
*33 _19_
*34 _20_
*35 _21_
*36 _22_
*37 _23_
*38 _24_
*39 _25_
*40 _26_
*41 _27_
*42 _28_
*43 clknet_0_clock_i
*44 clknet_1_0__leaf_clock_i
*45 clknet_1_1__leaf_clock_i
*46 net
*47 net1
*48 net10
*49 net11
*50 net12
*51 net13
*52 net14
*53 net15
*54 net16
*55 net17
*56 net18
*57 net19
*58 net2
*59 net20
*60 net21
*61 net22
*62 net23
*63 net24
*64 net25
*65 net26
*66 net27
*67 net28
*68 net29
*69 net3
*70 net30
*71 net31
*72 net32
*73 net33
*74 net34
*75 net35
*76 net36
*77 net4
*78 net5
*79 net6
*80 net7
*81 net8
*82 net9
*83 FILLER_0_0
*84 FILLER_0_105
*85 FILLER_0_112
*86 FILLER_0_119
*87 FILLER_0_126
*88 FILLER_0_133
*89 FILLER_0_14
*90 FILLER_0_140
*91 FILLER_0_147
*92 FILLER_0_154
*93 FILLER_0_161
*94 FILLER_0_168
*95 FILLER_0_175
*96 FILLER_0_182
*97 FILLER_0_189
*98 FILLER_0_196
*99 FILLER_0_203
*100 FILLER_0_21
*101 FILLER_0_210
*102 FILLER_0_217
*103 FILLER_0_224
*104 FILLER_0_231
*105 FILLER_0_238
*106 FILLER_0_245
*107 FILLER_0_252
*108 FILLER_0_259
*109 FILLER_0_266
*110 FILLER_0_273
*111 FILLER_0_28
*112 FILLER_0_280
*113 FILLER_0_287
*114 FILLER_0_294
*115 FILLER_0_301
*116 FILLER_0_308
*117 FILLER_0_315
*118 FILLER_0_322
*119 FILLER_0_329
*120 FILLER_0_336
*121 FILLER_0_343
*122 FILLER_0_35
*123 FILLER_0_350
*124 FILLER_0_357
*125 FILLER_0_364
*126 FILLER_0_371
*127 FILLER_0_378
*128 FILLER_0_385
*129 FILLER_0_42
*130 FILLER_0_49
*131 FILLER_0_56
*132 FILLER_0_63
*133 FILLER_0_7
*134 FILLER_0_70
*135 FILLER_0_77
*136 FILLER_0_84
*137 FILLER_0_91
*138 FILLER_0_98
*139 FILLER_10_0
*140 FILLER_10_105
*141 FILLER_10_112
*142 FILLER_10_119
*143 FILLER_10_126
*144 FILLER_10_133
*145 FILLER_10_14
*146 FILLER_10_140
*147 FILLER_10_147
*148 FILLER_10_154
*149 FILLER_10_161
*150 FILLER_10_168
*151 FILLER_10_175
*152 FILLER_10_182
*153 FILLER_10_189
*154 FILLER_10_196
*155 FILLER_10_203
*156 FILLER_10_21
*157 FILLER_10_210
*158 FILLER_10_217
*159 FILLER_10_224
*160 FILLER_10_231
*161 FILLER_10_238
*162 FILLER_10_245
*163 FILLER_10_252
*164 FILLER_10_259
*165 FILLER_10_266
*166 FILLER_10_273
*167 FILLER_10_28
*168 FILLER_10_280
*169 FILLER_10_287
*170 FILLER_10_294
*171 FILLER_10_301
*172 FILLER_10_308
*173 FILLER_10_315
*174 FILLER_10_322
*175 FILLER_10_329
*176 FILLER_10_336
*177 FILLER_10_343
*178 FILLER_10_35
*179 FILLER_10_350
*180 FILLER_10_357
*181 FILLER_10_364
*182 FILLER_10_371
*183 FILLER_10_378
*184 FILLER_10_385
*185 FILLER_10_42
*186 FILLER_10_49
*187 FILLER_10_56
*188 FILLER_10_63
*189 FILLER_10_7
*190 FILLER_10_70
*191 FILLER_10_77
*192 FILLER_10_84
*193 FILLER_10_91
*194 FILLER_10_98
*195 FILLER_11_0
*196 FILLER_11_105
*197 FILLER_11_112
*198 FILLER_11_119
*199 FILLER_11_126
*200 FILLER_11_133
*201 FILLER_11_14
*202 FILLER_11_140
*203 FILLER_11_147
*204 FILLER_11_154
*205 FILLER_11_161
*206 FILLER_11_168
*207 FILLER_11_175
*208 FILLER_11_182
*209 FILLER_11_189
*210 FILLER_11_196
*211 FILLER_11_203
*212 FILLER_11_21
*213 FILLER_11_210
*214 FILLER_11_217
*215 FILLER_11_224
*216 FILLER_11_231
*217 FILLER_11_238
*218 FILLER_11_245
*219 FILLER_11_252
*220 FILLER_11_259
*221 FILLER_11_266
*222 FILLER_11_273
*223 FILLER_11_28
*224 FILLER_11_280
*225 FILLER_11_287
*226 FILLER_11_294
*227 FILLER_11_301
*228 FILLER_11_308
*229 FILLER_11_315
*230 FILLER_11_322
*231 FILLER_11_329
*232 FILLER_11_336
*233 FILLER_11_343
*234 FILLER_11_35
*235 FILLER_11_350
*236 FILLER_11_357
*237 FILLER_11_364
*238 FILLER_11_371
*239 FILLER_11_378
*240 FILLER_11_385
*241 FILLER_11_42
*242 FILLER_11_49
*243 FILLER_11_56
*244 FILLER_11_63
*245 FILLER_11_7
*246 FILLER_11_70
*247 FILLER_11_77
*248 FILLER_11_84
*249 FILLER_11_91
*250 FILLER_11_98
*251 FILLER_12_0
*252 FILLER_12_105
*253 FILLER_12_112
*254 FILLER_12_119
*255 FILLER_12_126
*256 FILLER_12_133
*257 FILLER_12_14
*258 FILLER_12_140
*259 FILLER_12_147
*260 FILLER_12_154
*261 FILLER_12_161
*262 FILLER_12_168
*263 FILLER_12_175
*264 FILLER_12_182
*265 FILLER_12_189
*266 FILLER_12_196
*267 FILLER_12_203
*268 FILLER_12_21
*269 FILLER_12_210
*270 FILLER_12_217
*271 FILLER_12_224
*272 FILLER_12_231
*273 FILLER_12_238
*274 FILLER_12_245
*275 FILLER_12_252
*276 FILLER_12_259
*277 FILLER_12_266
*278 FILLER_12_273
*279 FILLER_12_28
*280 FILLER_12_280
*281 FILLER_12_287
*282 FILLER_12_294
*283 FILLER_12_301
*284 FILLER_12_308
*285 FILLER_12_315
*286 FILLER_12_322
*287 FILLER_12_329
*288 FILLER_12_336
*289 FILLER_12_343
*290 FILLER_12_35
*291 FILLER_12_350
*292 FILLER_12_357
*293 FILLER_12_364
*294 FILLER_12_371
*295 FILLER_12_378
*296 FILLER_12_385
*297 FILLER_12_42
*298 FILLER_12_49
*299 FILLER_12_56
*300 FILLER_12_63
*301 FILLER_12_7
*302 FILLER_12_70
*303 FILLER_12_77
*304 FILLER_12_84
*305 FILLER_12_91
*306 FILLER_12_98
*307 FILLER_13_0
*308 FILLER_13_105
*309 FILLER_13_112
*310 FILLER_13_119
*311 FILLER_13_126
*312 FILLER_13_133
*313 FILLER_13_14
*314 FILLER_13_140
*315 FILLER_13_147
*316 FILLER_13_154
*317 FILLER_13_161
*318 FILLER_13_168
*319 FILLER_13_175
*320 FILLER_13_182
*321 FILLER_13_189
*322 FILLER_13_196
*323 FILLER_13_203
*324 FILLER_13_21
*325 FILLER_13_210
*326 FILLER_13_217
*327 FILLER_13_224
*328 FILLER_13_231
*329 FILLER_13_238
*330 FILLER_13_245
*331 FILLER_13_254
*332 FILLER_13_261
*333 FILLER_13_268
*334 FILLER_13_275
*335 FILLER_13_28
*336 FILLER_13_282
*337 FILLER_13_289
*338 FILLER_13_296
*339 FILLER_13_303
*340 FILLER_13_310
*341 FILLER_13_317
*342 FILLER_13_324
*343 FILLER_13_331
*344 FILLER_13_338
*345 FILLER_13_345
*346 FILLER_13_35
*347 FILLER_13_352
*348 FILLER_13_359
*349 FILLER_13_366
*350 FILLER_13_373
*351 FILLER_13_380
*352 FILLER_13_387
*353 FILLER_13_391
*354 FILLER_13_42
*355 FILLER_13_49
*356 FILLER_13_53
*357 FILLER_13_63
*358 FILLER_13_7
*359 FILLER_13_70
*360 FILLER_13_77
*361 FILLER_13_84
*362 FILLER_13_91
*363 FILLER_13_98
*364 FILLER_14_0
*365 FILLER_14_105
*366 FILLER_14_112
*367 FILLER_14_119
*368 FILLER_14_126
*369 FILLER_14_133
*370 FILLER_14_14
*371 FILLER_14_140
*372 FILLER_14_147
*373 FILLER_14_151
*374 FILLER_14_179
*375 FILLER_14_186
*376 FILLER_14_188
*377 FILLER_14_202
*378 FILLER_14_206
*379 FILLER_14_21
*380 FILLER_14_215
*381 FILLER_14_222
*382 FILLER_14_229
*383 FILLER_14_236
*384 FILLER_14_243
*385 FILLER_14_245
*386 FILLER_14_253
*387 FILLER_14_28
*388 FILLER_14_284
*389 FILLER_14_291
*390 FILLER_14_298
*391 FILLER_14_305
*392 FILLER_14_312
*393 FILLER_14_319
*394 FILLER_14_326
*395 FILLER_14_333
*396 FILLER_14_340
*397 FILLER_14_347
*398 FILLER_14_35
*399 FILLER_14_354
*400 FILLER_14_361
*401 FILLER_14_368
*402 FILLER_14_375
*403 FILLER_14_382
*404 FILLER_14_389
*405 FILLER_14_391
*406 FILLER_14_42
*407 FILLER_14_49
*408 FILLER_14_51
*409 FILLER_14_61
*410 FILLER_14_7
*411 FILLER_14_77
*412 FILLER_14_84
*413 FILLER_14_91
*414 FILLER_14_98
*415 FILLER_15_0
*416 FILLER_15_102
*417 FILLER_15_109
*418 FILLER_15_116
*419 FILLER_15_123
*420 FILLER_15_130
*421 FILLER_15_137
*422 FILLER_15_142
*423 FILLER_15_195
*424 FILLER_15_21
*425 FILLER_15_231
*426 FILLER_15_233
*427 FILLER_15_28
*428 FILLER_15_282
*429 FILLER_15_289
*430 FILLER_15_296
*431 FILLER_15_303
*432 FILLER_15_310
*433 FILLER_15_317
*434 FILLER_15_324
*435 FILLER_15_331
*436 FILLER_15_338
*437 FILLER_15_345
*438 FILLER_15_352
*439 FILLER_15_359
*440 FILLER_15_366
*441 FILLER_15_373
*442 FILLER_15_38
*443 FILLER_15_380
*444 FILLER_15_387
*445 FILLER_15_391
*446 FILLER_15_45
*447 FILLER_15_7
*448 FILLER_15_83
*449 FILLER_15_87
*450 FILLER_15_92
*451 FILLER_16_0
*452 FILLER_16_110
*453 FILLER_16_125
*454 FILLER_16_132
*455 FILLER_16_14
*456 FILLER_16_144
*457 FILLER_16_194
*458 FILLER_16_196
*459 FILLER_16_215
*460 FILLER_16_225
*461 FILLER_16_229
*462 FILLER_16_282
*463 FILLER_16_289
*464 FILLER_16_296
*465 FILLER_16_303
*466 FILLER_16_310
*467 FILLER_16_317
*468 FILLER_16_324
*469 FILLER_16_331
*470 FILLER_16_338
*471 FILLER_16_345
*472 FILLER_16_352
*473 FILLER_16_359
*474 FILLER_16_366
*475 FILLER_16_373
*476 FILLER_16_380
*477 FILLER_16_387
*478 FILLER_16_391
*479 FILLER_16_42
*480 FILLER_16_46
*481 FILLER_16_7
*482 FILLER_17_0
*483 FILLER_17_104
*484 FILLER_17_11
*485 FILLER_17_111
*486 FILLER_17_115
*487 FILLER_17_121
*488 FILLER_17_128
*489 FILLER_17_135
*490 FILLER_17_142
*491 FILLER_17_149
*492 FILLER_17_17
*493 FILLER_17_185
*494 FILLER_17_19
*495 FILLER_17_192
*496 FILLER_17_199
*497 FILLER_17_206
*498 FILLER_17_220
*499 FILLER_17_225
*500 FILLER_17_232
*501 FILLER_17_239
*502 FILLER_17_24
*503 FILLER_17_268
*504 FILLER_17_272
*505 FILLER_17_277
*506 FILLER_17_284
*507 FILLER_17_291
*508 FILLER_17_298
*509 FILLER_17_305
*510 FILLER_17_31
*511 FILLER_17_312
*512 FILLER_17_319
*513 FILLER_17_323
*514 FILLER_17_329
*515 FILLER_17_336
*516 FILLER_17_343
*517 FILLER_17_350
*518 FILLER_17_357
*519 FILLER_17_364
*520 FILLER_17_371
*521 FILLER_17_375
*522 FILLER_17_38
*523 FILLER_17_381
*524 FILLER_17_388
*525 FILLER_17_45
*526 FILLER_17_52
*527 FILLER_17_59
*528 FILLER_17_63
*529 FILLER_17_69
*530 FILLER_17_7
*531 FILLER_17_76
*532 FILLER_17_83
*533 FILLER_17_90
*534 FILLER_17_97
*535 FILLER_1_102
*536 FILLER_1_109
*537 FILLER_1_11
*538 FILLER_1_116
*539 FILLER_1_123
*540 FILLER_1_130
*541 FILLER_1_137
*542 FILLER_1_144
*543 FILLER_1_151
*544 FILLER_1_158
*545 FILLER_1_165
*546 FILLER_1_172
*547 FILLER_1_179
*548 FILLER_1_18
*549 FILLER_1_186
*550 FILLER_1_193
*551 FILLER_1_200
*552 FILLER_1_207
*553 FILLER_1_214
*554 FILLER_1_221
*555 FILLER_1_228
*556 FILLER_1_235
*557 FILLER_1_242
*558 FILLER_1_249
*559 FILLER_1_25
*560 FILLER_1_256
*561 FILLER_1_263
*562 FILLER_1_270
*563 FILLER_1_277
*564 FILLER_1_284
*565 FILLER_1_291
*566 FILLER_1_298
*567 FILLER_1_305
*568 FILLER_1_312
*569 FILLER_1_319
*570 FILLER_1_32
*571 FILLER_1_326
*572 FILLER_1_333
*573 FILLER_1_340
*574 FILLER_1_347
*575 FILLER_1_354
*576 FILLER_1_361
*577 FILLER_1_368
*578 FILLER_1_375
*579 FILLER_1_382
*580 FILLER_1_389
*581 FILLER_1_39
*582 FILLER_1_391
*583 FILLER_1_4
*584 FILLER_1_46
*585 FILLER_1_53
*586 FILLER_1_60
*587 FILLER_1_67
*588 FILLER_1_74
*589 FILLER_1_81
*590 FILLER_1_88
*591 FILLER_1_95
*592 FILLER_2_0
*593 FILLER_2_105
*594 FILLER_2_112
*595 FILLER_2_119
*596 FILLER_2_126
*597 FILLER_2_133
*598 FILLER_2_14
*599 FILLER_2_140
*600 FILLER_2_147
*601 FILLER_2_154
*602 FILLER_2_161
*603 FILLER_2_168
*604 FILLER_2_175
*605 FILLER_2_182
*606 FILLER_2_189
*607 FILLER_2_196
*608 FILLER_2_203
*609 FILLER_2_21
*610 FILLER_2_210
*611 FILLER_2_217
*612 FILLER_2_224
*613 FILLER_2_231
*614 FILLER_2_238
*615 FILLER_2_245
*616 FILLER_2_252
*617 FILLER_2_259
*618 FILLER_2_266
*619 FILLER_2_273
*620 FILLER_2_28
*621 FILLER_2_280
*622 FILLER_2_287
*623 FILLER_2_294
*624 FILLER_2_301
*625 FILLER_2_308
*626 FILLER_2_315
*627 FILLER_2_322
*628 FILLER_2_329
*629 FILLER_2_336
*630 FILLER_2_343
*631 FILLER_2_35
*632 FILLER_2_350
*633 FILLER_2_357
*634 FILLER_2_364
*635 FILLER_2_371
*636 FILLER_2_378
*637 FILLER_2_385
*638 FILLER_2_42
*639 FILLER_2_49
*640 FILLER_2_56
*641 FILLER_2_63
*642 FILLER_2_7
*643 FILLER_2_70
*644 FILLER_2_77
*645 FILLER_2_84
*646 FILLER_2_91
*647 FILLER_2_98
*648 FILLER_3_0
*649 FILLER_3_105
*650 FILLER_3_112
*651 FILLER_3_119
*652 FILLER_3_126
*653 FILLER_3_133
*654 FILLER_3_14
*655 FILLER_3_140
*656 FILLER_3_147
*657 FILLER_3_154
*658 FILLER_3_161
*659 FILLER_3_168
*660 FILLER_3_175
*661 FILLER_3_182
*662 FILLER_3_189
*663 FILLER_3_196
*664 FILLER_3_203
*665 FILLER_3_21
*666 FILLER_3_210
*667 FILLER_3_217
*668 FILLER_3_224
*669 FILLER_3_231
*670 FILLER_3_238
*671 FILLER_3_245
*672 FILLER_3_252
*673 FILLER_3_259
*674 FILLER_3_266
*675 FILLER_3_273
*676 FILLER_3_28
*677 FILLER_3_280
*678 FILLER_3_287
*679 FILLER_3_294
*680 FILLER_3_301
*681 FILLER_3_308
*682 FILLER_3_315
*683 FILLER_3_322
*684 FILLER_3_329
*685 FILLER_3_336
*686 FILLER_3_343
*687 FILLER_3_35
*688 FILLER_3_350
*689 FILLER_3_357
*690 FILLER_3_364
*691 FILLER_3_371
*692 FILLER_3_378
*693 FILLER_3_385
*694 FILLER_3_42
*695 FILLER_3_49
*696 FILLER_3_56
*697 FILLER_3_63
*698 FILLER_3_7
*699 FILLER_3_70
*700 FILLER_3_77
*701 FILLER_3_84
*702 FILLER_3_91
*703 FILLER_3_98
*704 FILLER_4_0
*705 FILLER_4_105
*706 FILLER_4_112
*707 FILLER_4_119
*708 FILLER_4_126
*709 FILLER_4_133
*710 FILLER_4_14
*711 FILLER_4_140
*712 FILLER_4_147
*713 FILLER_4_154
*714 FILLER_4_161
*715 FILLER_4_168
*716 FILLER_4_175
*717 FILLER_4_182
*718 FILLER_4_189
*719 FILLER_4_196
*720 FILLER_4_203
*721 FILLER_4_21
*722 FILLER_4_210
*723 FILLER_4_217
*724 FILLER_4_224
*725 FILLER_4_231
*726 FILLER_4_238
*727 FILLER_4_245
*728 FILLER_4_252
*729 FILLER_4_259
*730 FILLER_4_266
*731 FILLER_4_273
*732 FILLER_4_28
*733 FILLER_4_280
*734 FILLER_4_287
*735 FILLER_4_294
*736 FILLER_4_301
*737 FILLER_4_308
*738 FILLER_4_315
*739 FILLER_4_322
*740 FILLER_4_329
*741 FILLER_4_336
*742 FILLER_4_343
*743 FILLER_4_35
*744 FILLER_4_350
*745 FILLER_4_357
*746 FILLER_4_364
*747 FILLER_4_371
*748 FILLER_4_378
*749 FILLER_4_385
*750 FILLER_4_42
*751 FILLER_4_49
*752 FILLER_4_56
*753 FILLER_4_63
*754 FILLER_4_7
*755 FILLER_4_70
*756 FILLER_4_77
*757 FILLER_4_84
*758 FILLER_4_91
*759 FILLER_4_98
*760 FILLER_5_0
*761 FILLER_5_105
*762 FILLER_5_112
*763 FILLER_5_119
*764 FILLER_5_126
*765 FILLER_5_133
*766 FILLER_5_14
*767 FILLER_5_140
*768 FILLER_5_147
*769 FILLER_5_154
*770 FILLER_5_161
*771 FILLER_5_168
*772 FILLER_5_175
*773 FILLER_5_182
*774 FILLER_5_189
*775 FILLER_5_196
*776 FILLER_5_203
*777 FILLER_5_21
*778 FILLER_5_210
*779 FILLER_5_217
*780 FILLER_5_224
*781 FILLER_5_231
*782 FILLER_5_238
*783 FILLER_5_245
*784 FILLER_5_252
*785 FILLER_5_259
*786 FILLER_5_266
*787 FILLER_5_273
*788 FILLER_5_28
*789 FILLER_5_280
*790 FILLER_5_287
*791 FILLER_5_294
*792 FILLER_5_301
*793 FILLER_5_308
*794 FILLER_5_315
*795 FILLER_5_322
*796 FILLER_5_329
*797 FILLER_5_336
*798 FILLER_5_343
*799 FILLER_5_35
*800 FILLER_5_350
*801 FILLER_5_357
*802 FILLER_5_364
*803 FILLER_5_371
*804 FILLER_5_378
*805 FILLER_5_385
*806 FILLER_5_42
*807 FILLER_5_49
*808 FILLER_5_56
*809 FILLER_5_63
*810 FILLER_5_7
*811 FILLER_5_70
*812 FILLER_5_77
*813 FILLER_5_84
*814 FILLER_5_91
*815 FILLER_5_98
*816 FILLER_6_0
*817 FILLER_6_105
*818 FILLER_6_112
*819 FILLER_6_119
*820 FILLER_6_126
*821 FILLER_6_133
*822 FILLER_6_14
*823 FILLER_6_140
*824 FILLER_6_147
*825 FILLER_6_154
*826 FILLER_6_161
*827 FILLER_6_168
*828 FILLER_6_175
*829 FILLER_6_182
*830 FILLER_6_189
*831 FILLER_6_196
*832 FILLER_6_203
*833 FILLER_6_21
*834 FILLER_6_210
*835 FILLER_6_217
*836 FILLER_6_224
*837 FILLER_6_231
*838 FILLER_6_238
*839 FILLER_6_245
*840 FILLER_6_252
*841 FILLER_6_259
*842 FILLER_6_266
*843 FILLER_6_273
*844 FILLER_6_28
*845 FILLER_6_280
*846 FILLER_6_287
*847 FILLER_6_294
*848 FILLER_6_301
*849 FILLER_6_308
*850 FILLER_6_315
*851 FILLER_6_322
*852 FILLER_6_329
*853 FILLER_6_336
*854 FILLER_6_343
*855 FILLER_6_35
*856 FILLER_6_350
*857 FILLER_6_357
*858 FILLER_6_364
*859 FILLER_6_371
*860 FILLER_6_378
*861 FILLER_6_385
*862 FILLER_6_42
*863 FILLER_6_49
*864 FILLER_6_56
*865 FILLER_6_63
*866 FILLER_6_7
*867 FILLER_6_70
*868 FILLER_6_77
*869 FILLER_6_84
*870 FILLER_6_91
*871 FILLER_6_98
*872 FILLER_7_0
*873 FILLER_7_105
*874 FILLER_7_112
*875 FILLER_7_119
*876 FILLER_7_126
*877 FILLER_7_133
*878 FILLER_7_14
*879 FILLER_7_140
*880 FILLER_7_147
*881 FILLER_7_154
*882 FILLER_7_161
*883 FILLER_7_168
*884 FILLER_7_175
*885 FILLER_7_182
*886 FILLER_7_189
*887 FILLER_7_196
*888 FILLER_7_203
*889 FILLER_7_21
*890 FILLER_7_210
*891 FILLER_7_217
*892 FILLER_7_224
*893 FILLER_7_231
*894 FILLER_7_238
*895 FILLER_7_245
*896 FILLER_7_252
*897 FILLER_7_259
*898 FILLER_7_266
*899 FILLER_7_273
*900 FILLER_7_28
*901 FILLER_7_280
*902 FILLER_7_287
*903 FILLER_7_294
*904 FILLER_7_301
*905 FILLER_7_308
*906 FILLER_7_315
*907 FILLER_7_322
*908 FILLER_7_329
*909 FILLER_7_336
*910 FILLER_7_343
*911 FILLER_7_35
*912 FILLER_7_350
*913 FILLER_7_357
*914 FILLER_7_364
*915 FILLER_7_371
*916 FILLER_7_378
*917 FILLER_7_385
*918 FILLER_7_42
*919 FILLER_7_49
*920 FILLER_7_56
*921 FILLER_7_63
*922 FILLER_7_7
*923 FILLER_7_70
*924 FILLER_7_77
*925 FILLER_7_84
*926 FILLER_7_91
*927 FILLER_7_98
*928 FILLER_8_0
*929 FILLER_8_105
*930 FILLER_8_112
*931 FILLER_8_119
*932 FILLER_8_126
*933 FILLER_8_133
*934 FILLER_8_14
*935 FILLER_8_140
*936 FILLER_8_147
*937 FILLER_8_154
*938 FILLER_8_161
*939 FILLER_8_168
*940 FILLER_8_175
*941 FILLER_8_182
*942 FILLER_8_189
*943 FILLER_8_196
*944 FILLER_8_203
*945 FILLER_8_21
*946 FILLER_8_210
*947 FILLER_8_217
*948 FILLER_8_224
*949 FILLER_8_231
*950 FILLER_8_238
*951 FILLER_8_245
*952 FILLER_8_252
*953 FILLER_8_259
*954 FILLER_8_266
*955 FILLER_8_273
*956 FILLER_8_28
*957 FILLER_8_280
*958 FILLER_8_287
*959 FILLER_8_294
*960 FILLER_8_301
*961 FILLER_8_308
*962 FILLER_8_315
*963 FILLER_8_322
*964 FILLER_8_329
*965 FILLER_8_336
*966 FILLER_8_343
*967 FILLER_8_35
*968 FILLER_8_350
*969 FILLER_8_357
*970 FILLER_8_364
*971 FILLER_8_371
*972 FILLER_8_378
*973 FILLER_8_385
*974 FILLER_8_42
*975 FILLER_8_49
*976 FILLER_8_56
*977 FILLER_8_63
*978 FILLER_8_7
*979 FILLER_8_70
*980 FILLER_8_77
*981 FILLER_8_84
*982 FILLER_8_91
*983 FILLER_8_98
*984 FILLER_9_102
*985 FILLER_9_109
*986 FILLER_9_11
*987 FILLER_9_116
*988 FILLER_9_123
*989 FILLER_9_130
*990 FILLER_9_137
*991 FILLER_9_144
*992 FILLER_9_151
*993 FILLER_9_158
*994 FILLER_9_165
*995 FILLER_9_172
*996 FILLER_9_179
*997 FILLER_9_18
*998 FILLER_9_186
*999 FILLER_9_193
*1000 FILLER_9_200
*1001 FILLER_9_207
*1002 FILLER_9_214
*1003 FILLER_9_221
*1004 FILLER_9_228
*1005 FILLER_9_235
*1006 FILLER_9_242
*1007 FILLER_9_249
*1008 FILLER_9_25
*1009 FILLER_9_256
*1010 FILLER_9_263
*1011 FILLER_9_270
*1012 FILLER_9_277
*1013 FILLER_9_284
*1014 FILLER_9_291
*1015 FILLER_9_298
*1016 FILLER_9_305
*1017 FILLER_9_312
*1018 FILLER_9_319
*1019 FILLER_9_32
*1020 FILLER_9_326
*1021 FILLER_9_333
*1022 FILLER_9_340
*1023 FILLER_9_347
*1024 FILLER_9_354
*1025 FILLER_9_361
*1026 FILLER_9_368
*1027 FILLER_9_375
*1028 FILLER_9_382
*1029 FILLER_9_389
*1030 FILLER_9_39
*1031 FILLER_9_391
*1032 FILLER_9_4
*1033 FILLER_9_46
*1034 FILLER_9_53
*1035 FILLER_9_60
*1036 FILLER_9_67
*1037 FILLER_9_74
*1038 FILLER_9_81
*1039 FILLER_9_88
*1040 FILLER_9_95
*1041 _37_
*1042 _38_
*1043 _39_
*1044 _40_
*1045 _41_
*1046 _42_
*1047 _43_
*1048 _44_
*1049 _45_
*1050 _46_
*1051 _47_
*1052 _48_
*1053 _49_
*1054 _50_
*1055 _51_
*1056 _52_
*1057 _53_
*1058 _54_
*1059 _55_
*1060 _56_
*1061 _57_
*1062 _58_
*1063 _59_
*1064 _60_
*1065 _61_
*1066 _62_
*1067 _63_
*1068 _64_
*1069 _65_
*1070 _66_
*1071 _66__18
*1072 _67_
*1073 _67__16
*1074 _68_
*1075 _68__14
*1076 _69_
*1077 _69__19
*1078 _70_
*1079 _70__15
*1080 _71_
*1081 _71__17
*1082 _72_
*1083 _72__13
*1084 _73_
*1085 _73__12
*1086 clkbuf_0_clock_i
*1087 clkbuf_1_0__f_clock_i
*1088 clkbuf_1_1__f_clock_i
*1089 fanout11
*1090 hold20
*1091 hold21
*1092 hold22
*1093 hold23
*1094 hold24
*1095 hold25
*1096 hold26
*1097 hold27
*1098 hold28
*1099 hold29
*1100 hold30
*1101 hold31
*1102 hold32
*1103 hold33
*1104 hold34
*1105 hold35
*1106 hold36
*1107 hold37
*1108 input1
*1109 input2
*1110 output10
*1111 output3
*1112 output4
*1113 output5
*1114 output6
*1115 output7
*1116 output8
*1117 output9

*PORTS
clock_i I
counter_value_o[0] O
counter_value_o[1] O
counter_value_o[2] O
counter_value_o[3] O
counter_value_o[4] O
counter_value_o[5] O
counter_value_o[6] O
counter_value_o[7] O
enable_i I
reset_n_i I

*D_NET *3 0.0075352
*CONN
*P clock_i I
*I *1086:A I *D sg13cmos5l_buf_8
*CAP
1 clock_i 0.00329484
2 *1086:A 0.000472763
3 *3:10 0.0037676
4 *1086:A *1046:B 0
5 *1086:A *1082:RESET_B 0
6 *1086:A *1089:A 0
7 *1086:A *23:18 0
8 *1086:A *25:10 0
9 *3:10 *1102:A 0
10 *3:10 *1111:A 0
11 *3:10 *1113:A 0
12 *3:10 *23:8 0
13 *3:10 *25:10 0
14 *3:10 *41:8 0
15 *3:10 *69:34 0
*RES
1 clock_i *3:10 40.9116 
2 *3:10 *1086:A 44.532 
*END

*D_NET *4 0.00154285
*CONN
*P counter_value_o[0] O
*I *1111:X O *D sg13cmos5l_buf_1
*CAP
1 counter_value_o[0] 0.000771425
2 *1111:X 0.000771425
*RES
1 *1111:X counter_value_o[0] 29.4039 
*END

*D_NET *5 0.00153378
*CONN
*P counter_value_o[1] O
*I *1112:X O *D sg13cmos5l_buf_1
*CAP
1 counter_value_o[1] 0.000766888
2 *1112:X 0.000766888
*RES
1 *1112:X counter_value_o[1] 29.4039 
*END

*D_NET *6 0.00153378
*CONN
*P counter_value_o[2] O
*I *1113:X O *D sg13cmos5l_buf_1
*CAP
1 counter_value_o[2] 0.000766888
2 *1113:X 0.000766888
*RES
1 *1113:X counter_value_o[2] 29.4039 
*END

*D_NET *7 0.00212393
*CONN
*P counter_value_o[3] O
*I *1114:X O *D sg13cmos5l_buf_1
*CAP
1 counter_value_o[3] 0.000747795
2 *1114:X 0.000143362
3 *7:8 0.000891157
4 *7:8 *1047:A1 0
5 *7:8 *23:18 0
6 *7:8 *49:24 0.000128662
7 *7:8 *49:35 0.000212958
*RES
1 *1114:X *7:8 41.5862 
2 *7:8 counter_value_o[3] 29.0537 
*END

*D_NET *8 0.00152358
*CONN
*P counter_value_o[4] O
*I *1115:X O *D sg13cmos5l_buf_1
*CAP
1 counter_value_o[4] 0.000761791
2 *1115:X 0.000761791
*RES
1 *1115:X counter_value_o[4] 29.4039 
*END

*D_NET *9 0.00162609
*CONN
*P counter_value_o[5] O
*I *1116:X O *D sg13cmos5l_buf_1
*CAP
1 counter_value_o[5] 0.000813046
2 *1116:X 0.000813046
*RES
1 *1116:X counter_value_o[5] 30.1043 
*END

*D_NET *10 0.00152358
*CONN
*P counter_value_o[6] O
*I *1117:X O *D sg13cmos5l_buf_1
*CAP
1 counter_value_o[6] 0.000761791
2 *1117:X 0.000761791
*RES
1 *1117:X counter_value_o[6] 29.4039 
*END

*D_NET *11 0.00152358
*CONN
*P counter_value_o[7] O
*I *1110:X O *D sg13cmos5l_buf_1
*CAP
1 counter_value_o[7] 0.000761791
2 *1110:X 0.000761791
*RES
1 *1110:X counter_value_o[7] 29.4039 
*END

*D_NET *12 0.000834467
*CONN
*P enable_i I
*I *1108:A I *D sg13cmos5l_buf_1
*CAP
1 enable_i 0.000417234
2 *1108:A 0.000417234
*RES
1 enable_i *1108:A 44.9955 
*END

*D_NET *13 0.000590842
*CONN
*P reset_n_i I
*I *1109:A I *D sg13cmos5l_buf_1
*CAP
1 reset_n_i 0.000295421
2 *1109:A 0.000295421
*RES
1 reset_n_i *1109:A 43.6977 
*END

*D_NET *14 0.000687052
*CONN
*I *1082:D I *D sg13cmos5l_dfrbpq_1
*I *1046:Y O *D sg13cmos5l_nor2_1
*CAP
1 *1082:D 0.00022237
2 *1046:Y 0.00022237
3 *1082:D *1082:RESET_B 0.000242313
*RES
1 *1046:Y *1082:D 42.7089 
*END

*D_NET *15 0.00125074
*CONN
*I *1101:A I *D sg13cmos5l_dlygate4sd3_1
*I *1049:Y O *D sg13cmos5l_a21oi_1
*CAP
1 *1101:A 0.000297822
2 *1049:Y 0.000114054
3 *15:10 0.000411877
4 *1101:A *1049:B1 0
5 *1101:A *25:22 0.00014502
6 *1101:A *44:51 0
7 *15:10 *22:21 0.000234224
8 *15:10 *25:22 0
9 *15:10 *43:32 0
10 *15:10 *44:51 4.77425e-05
*RES
1 *1049:Y *15:10 41.4111 
2 *15:10 *1101:A 43.3475 
*END

*D_NET *16 0.00122021
*CONN
*I *1098:A I *D sg13cmos5l_dlygate4sd3_1
*I *1053:Y O *D sg13cmos5l_a21oi_1
*CAP
1 *1098:A 0
2 *1053:Y 0.000457842
3 *16:10 0.000457842
4 *16:10 *1051:A1 7.97013e-05
5 *16:10 *1070:RESET_B 0
6 *16:10 *1070:D 0
7 *16:10 *22:53 4.77917e-05
8 *16:10 *49:50 0.00017703
9 *16:10 *49:65 0
10 *16:10 *55:8 0
*RES
1 *1053:Y *16:10 44.9337 
2 *16:10 *1098:A 40 
*END

*D_NET *17 0.00261474
*CONN
*I *1092:A I *D sg13cmos5l_dlygate4sd3_1
*I *1057:Y O *D sg13cmos5l_a21oi_1
*CAP
1 *1092:A 0.000250825
2 *1057:Y 0.000478594
3 *17:14 0.000729419
4 *1092:A *1057:B1 0
5 *1092:A *1072:RESET_B 0
6 *1092:A *1074:RESET_B 0.000403611
7 *17:14 *1057:A1 0.000145141
8 *17:14 *1057:B1 0.000371998
9 *17:14 *45:30 0
10 *17:14 *63:8 0.000235153
*RES
1 *1057:Y *17:14 45.7268 
2 *17:14 *1092:A 42.6986 
*END

*D_NET *18 0.000909103
*CONN
*I *1095:A I *D sg13cmos5l_dlygate4sd3_1
*I *1061:Y O *D sg13cmos5l_a21oi_1
*CAP
1 *1095:A 0.000454552
2 *1061:Y 0.000454552
3 *1095:A *1057:A2 0
4 *1095:A *1060:A 0
5 *1095:A *1061:A2 0
6 *1095:A *1061:B1 0
7 *1095:A *1091:A 0
8 *1095:A *36:10 0
*RES
1 *1061:Y *1095:A 44.0479 
*END

*D_NET *19 0.000726255
*CONN
*I *1076:D I *D sg13cmos5l_dfrbpq_1
*I *1063:X O *D sg13cmos5l_and2_1
*CAP
1 *1076:D 0.000323072
2 *1063:X 0.000323072
3 *1076:D *1062:B 8.01116e-05
4 *1076:D *1063:B 0
5 *1076:D *47:14 0
6 *1076:D *47:25 0
*RES
1 *1063:X *1076:D 43.7389 
*END

*D_NET *20 9.45957e-05
*CONN
*I *1078:D I *D sg13cmos5l_dfrbpq_1
*I *1066:X O *D sg13cmos5l_and2_1
*CAP
1 *1078:D 4.72978e-05
2 *1066:X 4.72978e-05
3 *1078:D *1066:B 0
4 *1078:D *1078:RESET_B 0
*RES
1 *1066:X *1078:D 40.5974 
*END

*D_NET *21 0.000343412
*CONN
*I *1080:D I *D sg13cmos5l_dfrbpq_1
*I *1069:X O *D sg13cmos5l_and2_1
*CAP
1 *1080:D 0.000171706
2 *1069:X 0.000171706
3 *1080:D *1069:B 0
4 *1080:D *1080:RESET_B 0
*RES
1 *1069:X *1080:D 41.8849 
*END

*D_NET *22 0.0102612
*CONN
*I *1057:B1 I *D sg13cmos5l_a21oi_1
*I *1061:B1 I *D sg13cmos5l_a21oi_1
*I *1053:B1 I *D sg13cmos5l_a21oi_1
*I *1049:B1 I *D sg13cmos5l_a21oi_1
*I *1046:A I *D sg13cmos5l_nor2_1
*I *1041:Y O *D sg13cmos5l_inv_1
*CAP
1 *1057:B1 0.000927737
2 *1061:B1 0.000164076
3 *1053:B1 0
4 *1049:B1 2.03572e-05
5 *1046:A 0
6 *1041:Y 0.000162243
7 *22:53 0.00253688
8 *22:40 0.00253779
9 *22:21 0.00154665
10 *22:10 0.000595807
11 *1049:B1 *44:51 3.31117e-05
12 *1057:B1 *1057:A1 0
13 *1057:B1 *1061:A2 0
14 *1057:B1 *1072:RESET_B 0
15 *1057:B1 *1072:D 0.000177466
16 *1057:B1 *1074:D 0
17 *1057:B1 *36:10 0
18 *1057:B1 *61:8 0
19 *1061:B1 *1061:A2 0
20 *1061:B1 *1091:A 0
21 *1061:B1 *36:10 0.000209297
22 *22:10 *43:9 0
23 *22:21 *43:9 0
24 *22:21 *44:51 0
25 *22:40 *1051:A1 0.000177279
26 *22:40 *1053:A1 0
27 *22:40 *1070:D 0
28 *22:40 *1084:CLK 0
29 *22:40 *1114:A 0
30 *22:40 *43:32 0
31 *22:40 *44:51 0
32 *22:40 *45:19 0
33 *22:40 *76:8 0
34 *22:40 *79:25 0
35 *22:40 *79:31 0
36 *22:40 *79:46 0
37 *22:53 *1051:A1 0
38 *22:53 *1053:A1 1.54282e-05
39 *22:53 *1058:C 0
40 *22:53 *1070:D 0
41 *22:53 *35:8 0
42 *22:53 *49:65 0.000503098
43 *22:53 *49:78 0
44 *22:53 *49:95 0
45 *22:53 *80:28 0
46 *22:53 *80:39 0
47 *22:53 *81:32 0
48 *22:53 *81:45 0
49 *1092:A *1057:B1 0
50 *1095:A *1061:B1 0
51 *1101:A *1049:B1 0
52 *15:10 *22:21 0.000234224
53 *16:10 *22:53 4.77917e-05
54 *17:14 *1057:B1 0.000371998
*RES
1 *1041:Y *22:10 41.6892 
2 *22:10 *1046:A 40 
3 *22:10 *22:21 4.6247 
4 *22:21 *1049:B1 40.2215 
5 *22:21 *22:40 31.3197 
6 *22:40 *1053:B1 20 
7 *22:40 *22:53 32.051 
8 *22:53 *1061:B1 41.751 
9 *22:53 *1057:B1 49.5172 
*END

*D_NET *23 0.0033889
*CONN
*I *1045:A I *D sg13cmos5l_xnor2_1
*I *1047:A1 I *D sg13cmos5l_o21ai_1
*I *1048:B I *D sg13cmos5l_or3_1
*I *1042:Y O *D sg13cmos5l_inv_1
*CAP
1 *1045:A 5.19982e-05
2 *1047:A1 0.000247814
3 *1048:B 0
4 *1042:Y 0.000180444
5 *23:18 0.000685365
6 *23:10 0.00048955
7 *23:8 0.000180444
8 *1045:A *1045:B 7.12287e-05
9 *1047:A1 *1048:A 0.000663546
10 *1047:A1 *27:8 0.000128576
11 *1047:A1 *49:35 0
12 *1047:A1 *68:8 0
13 *23:8 *25:10 0.000447684
14 *23:8 *76:8 0
15 *23:18 *1045:B 0
16 *23:18 *1089:A 0.000242253
17 *23:18 *1114:A 0
18 *23:18 *49:24 0
19 *1086:A *23:18 0
20 *3:10 *23:8 0
21 *7:8 *1047:A1 0
22 *7:8 *23:18 0
*RES
1 *1042:Y *23:8 42.575 
2 *23:8 *23:10 20 
3 *23:10 *23:18 24.5114 
4 *23:18 *1048:B 40 
5 *23:18 *1047:A1 43.5638 
6 *23:10 *1045:A 20.4764 
*END

*D_NET *24 0.00429021
*CONN
*I *1044:A I *D sg13cmos5l_buf_4
*I *1043:Y O *D sg13cmos5l_nand4_1
*CAP
1 *1044:A 0
2 *1043:Y 5.78867e-05
3 *24:12 0.00198101
4 *24:8 0.0020389
5 *24:8 *1043:A 1.54008e-05
6 *24:8 *44:16 1.54008e-05
7 *24:12 *1102:A 0
8 *24:12 *1113:A 0
9 *24:12 *41:8 0
10 *24:12 *44:8 0
11 *24:12 *44:16 0
12 *24:12 *44:51 0
13 *24:12 *77:31 0.000181608
*RES
1 *1043:Y *24:8 40.5356 
2 *24:8 *24:12 38.1486 
3 *24:12 *1044:A 20 
*END

*D_NET *25 0.00671293
*CONN
*I *1089:A I *D sg13cmos5l_buf_1
*I *1060:B I *D sg13cmos5l_or3_1
*I *1044:X O *D sg13cmos5l_buf_4
*CAP
1 *1089:A 0.000158527
2 *1060:B 0
3 *1044:X 0.000256654
4 *25:22 0.00228684
5 *25:12 0.00244536
6 *25:10 0.000256654
7 *25:10 *44:51 0
8 *25:10 *76:8 0.000394237
9 *25:22 *1082:RESET_B 0
10 *25:22 *1084:CLK 0
11 *25:22 *26:10 7.9706e-05
12 *25:22 *29:16 0
13 *25:22 *33:10 0
14 *25:22 *43:32 0
15 *25:22 *44:51 0
16 *25:22 *45:19 0
17 *25:22 *45:30 0
18 *25:22 *57:33 0
19 *1086:A *1089:A 0
20 *1086:A *25:10 0
21 *1101:A *25:22 0.00014502
22 *3:10 *25:10 0
23 *15:10 *25:22 0
24 *23:8 *25:10 0.000447684
25 *23:18 *1089:A 0.000242253
*RES
1 *1044:X *25:10 43.8831 
2 *25:10 *25:12 20 
3 *25:12 *25:22 47.2641 
4 *25:22 *1060:B 40 
5 *25:12 *1089:A 21.8334 
*END

*D_NET *26 0.000897718
*CONN
*I *1046:B I *D sg13cmos5l_nor2_1
*I *1045:Y O *D sg13cmos5l_xnor2_1
*CAP
1 *1046:B 0.000107175
2 *1045:Y 0.000301832
3 *26:10 0.000409006
4 *26:10 *1082:RESET_B 0
5 *26:10 *43:9 0
6 *26:10 *44:51 0
7 *1086:A *1046:B 0
8 *25:22 *26:10 7.9706e-05
*RES
1 *1045:Y *26:10 42.369 
2 *26:10 *1046:B 40.9682 
*END

*D_NET *27 0.000511404
*CONN
*I *1100:A I *D sg13cmos5l_dlygate4sd3_1
*I *1047:Y O *D sg13cmos5l_o21ai_1
*CAP
1 *1100:A 3.46921e-05
2 *1047:Y 0.000156722
3 *27:8 0.000191414
4 *27:8 *1048:A 0
5 *27:8 *49:35 0
6 *27:8 *49:50 0
7 *27:8 *67:10 0
8 *1047:A1 *27:8 0.000128576
*RES
1 *1047:Y *27:8 41.339 
2 *27:8 *1100:A 40.3193 
*END

*D_NET *28 0.00128443
*CONN
*I *1049:A2 I *D sg13cmos5l_a21oi_1
*I *1048:X O *D sg13cmos5l_or3_1
*CAP
1 *1049:A2 0.000391666
2 *1048:X 0.000391666
3 *1049:A2 *1048:A 0
4 *1049:A2 *1049:A1 0.000501096
5 *1049:A2 *1084:RESET_B 0
6 *1049:A2 *1084:D 0
*RES
1 *1048:X *1049:A2 44.1921 
*END

*D_NET *29 0.0021661
*CONN
*I *1051:A2 I *D sg13cmos5l_o21ai_1
*I *1052:C I *D sg13cmos5l_or3_1
*I *1050:Y O *D sg13cmos5l_nand2_1
*CAP
1 *1051:A2 3.52072e-05
2 *1052:C 0
3 *1050:Y 0.000254504
4 *29:16 0.000446656
5 *29:8 0.000736367
6 *1051:A2 *1051:A1 1.54008e-05
7 *1051:A2 *64:27 4.77425e-05
8 *29:8 *1050:B 1.54008e-05
9 *29:8 *1051:A1 0.000112536
10 *29:8 *45:8 0
11 *29:8 *80:6 0
12 *29:16 *1052:B 0
13 *29:16 *64:27 0.000502289
14 *25:22 *29:16 0
*RES
1 *1050:Y *29:8 22.6471 
2 *29:8 *29:16 45.15 
3 *29:16 *1052:C 20 
4 *29:8 *1051:A2 20.5356 
*END

*D_NET *30 0.000930022
*CONN
*I *1097:A I *D sg13cmos5l_dlygate4sd3_1
*I *1051:Y O *D sg13cmos5l_o21ai_1
*CAP
1 *1097:A 0.00015198
2 *1051:Y 0.000313032
3 *30:8 0.000465011
4 *1097:A *1052:B 0
5 *1097:A *1096:A 0
6 *30:8 *31:12 0
7 *30:8 *45:19 0
8 *30:8 *79:46 0
*RES
1 *1051:Y *30:8 42.8222 
2 *30:8 *1097:A 41.4008 
*END

*D_NET *31 0.0018091
*CONN
*I *1053:A2 I *D sg13cmos5l_a21oi_1
*I *1052:X O *D sg13cmos5l_or3_1
*CAP
1 *1053:A2 0
2 *1052:X 0.000405082
3 *31:12 0.000405082
4 *31:12 *1052:A 0.000209681
5 *31:12 *1052:B 0
6 *31:12 *1070:RESET_B 0.000274491
7 *31:12 *64:12 0.000226677
8 *31:12 *79:46 0.000288087
9 *30:8 *31:12 0
*RES
1 *1052:X *31:12 45.0367 
2 *31:12 *1053:A2 40 
*END

*D_NET *32 0.000801867
*CONN
*I *1056:C I *D sg13cmos5l_or3_1
*I *1055:A2 I *D sg13cmos5l_o21ai_1
*I *1054:Y O *D sg13cmos5l_nand3_1
*CAP
1 *1056:C 0.00013909
2 *1055:A2 3.73923e-05
3 *1054:Y 0.000144224
4 *32:8 0.000320707
5 *1055:A2 *1055:A1 0
6 *1055:A2 *57:33 1.54008e-05
7 *1056:C *1056:B 0
8 *32:8 *1055:A1 0.000145052
9 *32:8 *1056:B 0
*RES
1 *1054:Y *32:8 21.5656 
2 *32:8 *1055:A2 20.5356 
3 *32:8 *1056:C 21.6274 
*END

*D_NET *33 0.00161241
*CONN
*I *1091:A I *D sg13cmos5l_dlygate4sd3_1
*I *1055:Y O *D sg13cmos5l_o21ai_1
*CAP
1 *1091:A 0.000275054
2 *1055:Y 0.000131324
3 *33:10 0.000406378
4 *1091:A *1057:A2 0
5 *1091:A *1060:C 0
6 *1091:A *36:10 1.54008e-05
7 *33:10 *45:30 0.000447597
8 *33:10 *57:33 0.000336659
9 *1061:B1 *1091:A 0
10 *1095:A *1091:A 0
11 *25:22 *33:10 0
*RES
1 *1055:Y *33:10 42.3999 
2 *33:10 *1091:A 42.3999 
*END

*D_NET *34 0.000921529
*CONN
*I *1057:A2 I *D sg13cmos5l_a21oi_1
*I *1056:X O *D sg13cmos5l_or3_1
*CAP
1 *1057:A2 0.000460764
2 *1056:X 0.000460764
3 *1057:A2 *1057:A1 0
4 *1057:A2 *1060:A 0
5 *1057:A2 *1060:C 0
6 *1091:A *1057:A2 0
7 *1095:A *1057:A2 0
*RES
1 *1056:X *1057:A2 44.7895 
*END

*D_NET *35 0.00176075
*CONN
*I *1059:A2 I *D sg13cmos5l_o21ai_1
*I *1060:C I *D sg13cmos5l_or3_1
*I *1058:Y O *D sg13cmos5l_nand4_1
*CAP
1 *1059:A2 0
2 *1060:C 0.00050874
3 *1058:Y 0.000128737
4 *35:12 0.000558931
5 *35:8 0.000178928
6 *1060:C *1056:B 8.01118e-05
7 *1060:C *1060:A 0
8 *1060:C *36:10 0
9 *1060:C *49:95 1.54285e-05
10 *1060:C *57:23 0.000145003
11 *1060:C *57:33 8.00842e-05
12 *35:8 *81:45 0
13 *35:12 *36:10 0
14 *35:12 *49:95 6.47875e-05
15 *1057:A2 *1060:C 0
16 *1091:A *1060:C 0
17 *22:53 *35:8 0
*RES
1 *1058:Y *35:8 41.0918 
2 *35:8 *35:12 20.5356 
3 *35:12 *1060:C 25.2942 
4 *35:12 *1059:A2 20 
*END

*D_NET *36 0.00130575
*CONN
*I *1094:A I *D sg13cmos5l_dlygate4sd3_1
*I *1059:Y O *D sg13cmos5l_o21ai_1
*CAP
1 *1094:A 0
2 *1059:Y 0.000540527
3 *36:10 0.000540527
4 *36:10 *49:95 0
5 *36:10 *61:8 0
6 *1057:B1 *36:10 0
7 *1060:C *36:10 0
8 *1061:B1 *36:10 0.000209297
9 *1091:A *36:10 1.54008e-05
10 *1095:A *36:10 0
11 *35:12 *36:10 0
*RES
1 *1059:Y *36:10 45.8298 
2 *36:10 *1094:A 40 
*END

*D_NET *37 0.00168424
*CONN
*I *1061:A2 I *D sg13cmos5l_a21oi_1
*I *1060:X O *D sg13cmos5l_or3_1
*CAP
1 *1061:A2 0.000623839
2 *1060:X 0.000623839
3 *1061:A2 *1057:A1 0.00043656
4 *1061:A2 *1060:A 0
5 *1061:A2 *1061:A1 0
6 *1061:A2 *1072:RESET_B 0
7 *1057:B1 *1061:A2 0
8 *1061:B1 *1061:A2 0
9 *1095:A *1061:A2 0
*RES
1 *1060:X *1061:A2 45.5535 
*END

*D_NET *38 0.000289531
*CONN
*I *1063:B I *D sg13cmos5l_and2_1
*I *1062:X O *D sg13cmos5l_xor2_1
*CAP
1 *1063:B 0.000144766
2 *1062:X 0.000144766
3 *1063:B *1062:B 0
4 *1063:B *58:6 0
5 *1076:D *1063:B 0
*RES
1 *1062:X *1063:B 41.6583 
*END

*D_NET *39 0.00159768
*CONN
*I *1065:B I *D sg13cmos5l_xnor2_1
*I *1064:Y O *D sg13cmos5l_nand2_1
*CAP
1 *1065:B 0.000658953
2 *1064:Y 0.000658953
3 *1065:B *1043:C 0
4 *1065:B *1064:A 4.77425e-05
5 *1065:B *1065:A 0
6 *1065:B *1066:B 2.21754e-05
7 *1065:B *1078:RESET_B 0
8 *1065:B *1105:A 0.000209856
*RES
1 *1064:Y *1065:B 47.0555 
*END

*D_NET *40 0.000621945
*CONN
*I *1105:A I *D sg13cmos5l_dlygate4sd3_1
*I *1065:Y O *D sg13cmos5l_xnor2_1
*CAP
1 *1105:A 0.000206044
2 *1065:Y 0.000206044
3 *1105:A *1065:A 0
4 *1105:A *1078:RESET_B 0
5 *1065:B *1105:A 0.000209856
*RES
1 *1065:Y *1105:A 42.4926 
*END

*D_NET *41 0.00073638
*CONN
*I *1068:B I *D sg13cmos5l_xnor2_1
*I *1067:Y O *D sg13cmos5l_nand3_1
*CAP
1 *1068:B 4.94959e-05
2 *1067:Y 0.000270952
3 *41:8 0.000320448
4 *1068:B *1068:A 1.54008e-05
5 *1068:B *1112:A 8.00842e-05
6 *41:8 *77:31 0
7 *3:10 *41:8 0
8 *24:12 *41:8 0
*RES
1 *1067:Y *41:8 42.575 
2 *41:8 *1068:B 40.5356 
*END

*D_NET *42 0.000162966
*CONN
*I *1103:A I *D sg13cmos5l_dlygate4sd3_1
*I *1068:Y O *D sg13cmos5l_xnor2_1
*CAP
1 *1103:A 8.14832e-05
2 *1068:Y 8.14832e-05
*RES
1 *1068:Y *1103:A 40.9167 
*END

*D_NET *43 0.00398822
*CONN
*I *1088:A I *D sg13cmos5l_buf_8
*I *1087:A I *D sg13cmos5l_buf_8
*I *1086:X O *D sg13cmos5l_buf_8
*CAP
1 *1088:A 0.000163273
2 *1087:A 0.000145925
3 *1086:X 0.00168491
4 *43:32 0.00086678
5 *43:9 0.00112733
6 *1088:A *45:8 0
7 *43:9 *44:51 0
8 *43:9 *58:40 0
9 *43:32 *1084:CLK 0
10 *15:10 *43:32 0
11 *22:10 *43:9 0
12 *22:21 *43:9 0
13 *22:40 *43:32 0
14 *25:22 *43:32 0
15 *26:10 *43:9 0
*RES
1 *1086:X *43:9 48.5078 
2 *43:9 *1087:A 41.5038 
3 *1086:X *43:32 48.0237 
4 *43:32 *1088:A 41.7201 
*END

*D_NET *44 0.010409
*CONN
*I *1082:CLK I *D sg13cmos5l_dfrbpq_1
*I *1080:CLK I *D sg13cmos5l_dfrbpq_1
*I *1078:CLK I *D sg13cmos5l_dfrbpq_1
*I *1076:CLK I *D sg13cmos5l_dfrbpq_1
*I *1087:X O *D sg13cmos5l_buf_8
*CAP
1 *1082:CLK 0
2 *1080:CLK 5.68535e-05
3 *1078:CLK 0
4 *1076:CLK 0.000185005
5 *1087:X 0
6 *44:51 0.00164513
7 *44:22 0.000727201
8 *44:16 0.00158276
9 *44:8 0.00164411
10 *44:6 0.00219183
11 *1076:CLK *1076:RESET_B 0
12 *1076:CLK *1106:A 0
13 *1076:CLK *47:25 0
14 *44:8 *58:40 0
15 *44:16 *1043:A 0
16 *44:16 *58:40 0
17 *44:16 *71:8 0
18 *44:16 *77:21 0
19 *44:16 *77:31 0.00012816
20 *44:22 *58:14 0.000983229
21 *44:22 *58:27 0.00095864
22 *44:22 *73:8 0
23 *44:51 *1049:A1 0.000209835
24 *44:51 *58:40 0
25 *44:51 *76:8 0
26 *1049:B1 *44:51 3.31117e-05
27 *1101:A *44:51 0
28 *15:10 *44:51 4.77425e-05
29 *22:21 *44:51 0
30 *22:40 *44:51 0
31 *24:8 *44:16 1.54008e-05
32 *24:12 *44:8 0
33 *24:12 *44:16 0
34 *24:12 *44:51 0
35 *25:10 *44:51 0
36 *25:22 *44:51 0
37 *26:10 *44:51 0
38 *43:9 *44:51 0
*RES
1 *1087:X *44:6 40 
2 *44:6 *44:8 5.2942 
3 *44:8 *44:16 29.5172 
4 *44:16 *44:22 49.0022 
5 *44:22 *1076:CLK 21.8334 
6 *44:16 *1078:CLK 20 
7 *44:8 *1080:CLK 40.5356 
8 *44:6 *44:51 35.6354 
9 *44:51 *1082:CLK 20 
*END

*D_NET *45 0.00591021
*CONN
*I *1074:CLK I *D sg13cmos5l_dfrbpq_1
*I *1072:CLK I *D sg13cmos5l_dfrbpq_1
*I *1070:CLK I *D sg13cmos5l_dfrbpq_1
*I *1084:CLK I *D sg13cmos5l_dfrbpq_1
*I *1088:X O *D sg13cmos5l_buf_8
*CAP
1 *1074:CLK 0.000247443
2 *1072:CLK 0
3 *1070:CLK 0
4 *1084:CLK 0.000392588
5 *1088:X 0.000162358
6 *45:30 0.00133783
7 *45:19 0.00162157
8 *45:8 0.00108613
9 *1074:CLK *1074:RESET_B 0
10 *1074:CLK *1090:A 0.000112826
11 *45:19 *64:8 0
12 *45:19 *64:27 0.000501874
13 *45:19 *79:46 0
14 *45:30 *1096:A 0
15 *45:30 *57:8 0
16 *45:30 *57:33 0
17 *45:30 *63:8 0
18 *45:30 *79:46 0
19 *45:30 *81:21 0
20 *45:30 *81:32 0
21 *45:30 *81:45 0
22 *1088:A *45:8 0
23 *17:14 *45:30 0
24 *22:40 *1084:CLK 0
25 *22:40 *45:19 0
26 *25:22 *1084:CLK 0
27 *25:22 *45:19 0
28 *25:22 *45:30 0
29 *29:8 *45:8 0
30 *30:8 *45:19 0
31 *33:10 *45:30 0.000447597
32 *43:32 *1084:CLK 0
*RES
1 *1088:X *45:8 41.6171 
2 *45:8 *1084:CLK 43.5638 
3 *45:8 *45:19 5.5414 
4 *45:19 *1070:CLK 40 
5 *45:19 *45:30 32.7102 
6 *45:30 *1072:CLK 20 
7 *45:30 *1074:CLK 22.8634 
*END

*D_NET *46 0.000927557
*CONN
*I *1084:RESET_B I *D sg13cmos5l_dfrbpq_1
*I *1085:L_HI O *D sg13cmos5l_tiehi
*CAP
1 *1084:RESET_B 0.000463779
2 *1085:L_HI 0.000463779
3 *1084:RESET_B *1084:D 0
4 *1084:RESET_B *67:10 0
5 *1084:RESET_B *79:8 0
6 *1049:A2 *1084:RESET_B 0
*RES
1 *1085:L_HI *1084:RESET_B 45.2324 
*END

*D_NET *47 0.00861521
*CONN
*I *1043:B I *D sg13cmos5l_nand4_1
*I *1067:A I *D sg13cmos5l_nand3_1
*I *1064:A I *D sg13cmos5l_nand2_1
*I *1062:A I *D sg13cmos5l_xor2_1
*I *1108:X O *D sg13cmos5l_buf_1
*CAP
1 *1043:B 0.000164649
2 *1067:A 6.28783e-05
3 *1064:A 4.66018e-05
4 *1062:A 0
5 *1108:X 0.000312598
6 *47:36 0.000370371
7 *47:25 0.001184
8 *47:14 0.00347619
9 *47:8 0.00279423
10 *1043:B *1043:C 3.39041e-05
11 *1043:B *1043:A 1.98648e-05
12 *1043:B *1043:D 0
13 *1043:B *58:27 0
14 *1043:B *77:31 2.20966e-05
15 *1064:A *1078:RESET_B 8.00842e-05
16 *47:14 *1076:RESET_B 0
17 *47:25 *1043:D 0
18 *47:25 *1062:B 0
19 *47:25 *1111:A 0
20 *47:25 *69:10 0
21 *47:25 *69:34 0
22 *47:36 *1043:D 0
23 *47:36 *1067:C 0
24 *47:36 *77:31 0
25 *1065:B *1064:A 4.77425e-05
26 *1076:D *47:14 0
27 *1076:D *47:25 0
28 *1076:CLK *47:25 0
*RES
1 *1108:X *47:8 44.0582 
2 *47:8 *47:14 48.1396 
3 *47:14 *1062:A 20 
4 *47:14 *47:25 26.547 
5 *47:25 *1064:A 40.5356 
6 *47:25 *47:36 1.339 
7 *47:36 *1067:A 40.5356 
8 *47:36 *1043:B 41.5347 
*END

*D_NET *48 0.00489568
*CONN
*I *1110:A I *D sg13cmos5l_buf_1
*I *1093:A I *D sg13cmos5l_dlygate4sd3_1
*I *1074:Q O *D sg13cmos5l_dfrbpq_1
*CAP
1 *1110:A 0
2 *1093:A 5.13355e-05
3 *1074:Q 0.000306372
4 *48:23 0.00209013
5 *48:8 0.00244784
6 *1093:A *82:30 0
7 *48:8 *81:45 0
8 *48:23 *82:30 0
*RES
1 *1074:Q *48:8 43.3475 
2 *48:8 *1093:A 40.5974 
3 *48:8 *48:23 46.1311 
4 *48:23 *1110:A 20 
*END

*D_NET *49 0.0108514
*CONN
*I *1059:A1 I *D sg13cmos5l_o21ai_1
*I *1056:B I *D sg13cmos5l_or3_1
*I *1055:A1 I *D sg13cmos5l_o21ai_1
*I *1052:B I *D sg13cmos5l_or3_1
*I *1051:A1 I *D sg13cmos5l_o21ai_1
*I *1047:A2 I *D sg13cmos5l_o21ai_1
*I *1048:C I *D sg13cmos5l_or3_1
*I *1045:B I *D sg13cmos5l_xnor2_1
*I *1089:X O *D sg13cmos5l_buf_1
*CAP
1 *1059:A1 0
2 *1056:B 0.000167207
3 *1055:A1 0.000347554
4 *1052:B 0.000542055
5 *1051:A1 0.000324304
6 *1047:A2 7.94323e-05
7 *1048:C 6.47335e-05
8 *1045:B 0.00018555
9 *1089:X 0.000346079
10 *49:95 0.000539684
11 *49:78 0.00136952
12 *49:65 0.00139501
13 *49:50 0.00109183
14 *49:35 0.0010171
15 *49:24 0.000598873
16 *1045:B *1114:A 0.000209812
17 *1047:A2 *1047:B1 1.54008e-05
18 *1051:A1 *1070:D 0
19 *1052:B *1052:A 0.000306925
20 *1052:B *1070:RESET_B 0
21 *1052:B *64:12 0.000242017
22 *1055:A1 *1054:B 8.00842e-05
23 *1055:A1 *1115:A 0
24 *1055:A1 *81:8 0
25 *1056:B *1058:C 0
26 *1056:B *57:23 0.000129603
27 *1056:B *57:33 1.54008e-05
28 *49:50 *67:10 0
29 *49:50 *80:28 0
30 *49:65 *55:8 0
31 *49:78 *55:8 0
32 *49:95 *1058:C 0
33 *1045:A *1045:B 7.12287e-05
34 *1047:A1 *49:35 0
35 *1051:A2 *1051:A1 1.54008e-05
36 *1055:A2 *1055:A1 0
37 *1056:C *1056:B 0
38 *1060:C *1056:B 8.01118e-05
39 *1060:C *49:95 1.54285e-05
40 *1097:A *1052:B 0
41 *7:8 *49:24 0.000128662
42 *7:8 *49:35 0.000212958
43 *16:10 *1051:A1 7.97013e-05
44 *16:10 *49:50 0.00017703
45 *16:10 *49:65 0
46 *22:40 *1051:A1 0.000177279
47 *22:53 *1051:A1 0
48 *22:53 *49:65 0.000503098
49 *22:53 *49:78 0
50 *22:53 *49:95 0
51 *23:18 *1045:B 0
52 *23:18 *49:24 0
53 *27:8 *49:35 0
54 *27:8 *49:50 0
55 *29:8 *1051:A1 0.000112536
56 *29:16 *1052:B 0
57 *31:12 *1052:B 0
58 *32:8 *1055:A1 0.000145052
59 *32:8 *1056:B 0
60 *35:12 *49:95 6.47875e-05
61 *36:10 *49:95 0
*RES
1 *1089:X *1045:B 41.9673 
2 *1089:X *49:24 41.9055 
3 *49:24 *1048:C 40.7519 
4 *49:24 *49:35 4.3054 
5 *49:35 *1047:A2 40.7519 
6 *49:35 *49:50 26.6332 
7 *49:50 *1051:A1 23.3681 
8 *49:50 *49:65 22.8222 
9 *49:65 *1052:B 45.0779 
10 *49:65 *49:78 5.6135 
11 *49:78 *1055:A1 43.7286 
12 *49:78 *49:95 23.7286 
13 *49:95 *1056:B 21.8334 
14 *49:95 *1059:A1 20 
*END

*D_NET *50 0.0013065
*CONN
*I *1082:RESET_B I *D sg13cmos5l_dfrbpq_1
*I *1083:L_HI O *D sg13cmos5l_tiehi
*CAP
1 *1082:RESET_B 0.000532095
2 *1083:L_HI 0.000532095
3 *1082:D *1082:RESET_B 0.000242313
4 *1086:A *1082:RESET_B 0
5 *25:22 *1082:RESET_B 0
6 *26:10 *1082:RESET_B 0
*RES
1 *1083:L_HI *1082:RESET_B 45.2736 
*END

*D_NET *51 0.00158506
*CONN
*I *1074:RESET_B I *D sg13cmos5l_dfrbpq_1
*I *1075:L_HI O *D sg13cmos5l_tiehi
*CAP
1 *1074:RESET_B 0.000590725
2 *1075:L_HI 0.000590725
3 *1074:RESET_B *1072:RESET_B 0
4 *1074:RESET_B *1074:D 0
5 *1074:RESET_B *1090:A 0
6 *1074:CLK *1074:RESET_B 0
7 *1092:A *1074:RESET_B 0.000403611
*RES
1 *1075:L_HI *1074:RESET_B 46.6744 
*END

*D_NET *52 0.000851972
*CONN
*I *1078:RESET_B I *D sg13cmos5l_dfrbpq_1
*I *1079:L_HI O *D sg13cmos5l_tiehi
*CAP
1 *1078:RESET_B 0.000362072
2 *1079:L_HI 0.000362072
3 *1078:RESET_B *1043:D 0
4 *1078:RESET_B *1067:C 4.77425e-05
5 *1064:A *1078:RESET_B 8.00842e-05
6 *1065:B *1078:RESET_B 0
7 *1078:D *1078:RESET_B 0
8 *1105:A *1078:RESET_B 0
*RES
1 *1079:L_HI *1078:RESET_B 43.9552 
*END

*D_NET *53 0.000762684
*CONN
*I *1072:RESET_B I *D sg13cmos5l_dfrbpq_1
*I *1073:L_HI O *D sg13cmos5l_tiehi
*CAP
1 *1072:RESET_B 0.000381342
2 *1073:L_HI 0.000381342
3 *1072:RESET_B *1072:D 0
4 *1057:B1 *1072:RESET_B 0
5 *1061:A2 *1072:RESET_B 0
6 *1074:RESET_B *1072:RESET_B 0
7 *1092:A *1072:RESET_B 0
*RES
1 *1073:L_HI *1072:RESET_B 43.914 
*END

*D_NET *54 0.000506363
*CONN
*I *1080:RESET_B I *D sg13cmos5l_dfrbpq_1
*I *1081:L_HI O *D sg13cmos5l_tiehi
*CAP
1 *1080:RESET_B 0.000253181
2 *1081:L_HI 0.000253181
3 *1080:D *1080:RESET_B 0
*RES
1 *1081:L_HI *1080:RESET_B 42.6162 
*END

*D_NET *55 0.00187458
*CONN
*I *1070:RESET_B I *D sg13cmos5l_dfrbpq_1
*I *1071:L_HI O *D sg13cmos5l_tiehi
*CAP
1 *1070:RESET_B 0.00032006
2 *1071:L_HI 0.000246282
3 *55:8 0.000566342
4 *1070:RESET_B *1070:D 0.000467406
5 *1052:B *1070:RESET_B 0
6 *16:10 *1070:RESET_B 0
7 *16:10 *55:8 0
8 *31:12 *1070:RESET_B 0.000274491
9 *49:65 *55:8 0
10 *49:78 *55:8 0
*RES
1 *1071:L_HI *55:8 42.0806 
2 *55:8 *1070:RESET_B 43.5638 
*END

*D_NET *56 0.000483046
*CONN
*I *1076:RESET_B I *D sg13cmos5l_dfrbpq_1
*I *1077:L_HI O *D sg13cmos5l_tiehi
*CAP
1 *1076:RESET_B 0.000241523
2 *1077:L_HI 0.000241523
3 *1076:RESET_B *1111:A 0
4 *1076:CLK *1076:RESET_B 0
5 *47:14 *1076:RESET_B 0
*RES
1 *1077:L_HI *1076:RESET_B 42.781 
*END

*D_NET *57 0.00364905
*CONN
*I *1056:A I *D sg13cmos5l_or3_1
*I *1055:B1 I *D sg13cmos5l_o21ai_1
*I *1058:A I *D sg13cmos5l_nand4_1
*I *1090:X O *D sg13cmos5l_dlygate4sd3_1
*CAP
1 *1056:A 0
2 *1055:B1 0
3 *1058:A 7.39744e-05
4 *1090:X 0.000365878
5 *57:33 0.00019395
6 *57:23 0.000310963
7 *57:8 0.000556865
8 *1058:A *81:45 0.000235141
9 *57:8 *81:45 0.00119013
10 *1055:A2 *57:33 1.54008e-05
11 *1056:B *57:23 0.000129603
12 *1056:B *57:33 1.54008e-05
13 *1060:C *57:23 0.000145003
14 *1060:C *57:33 8.00842e-05
15 *25:22 *57:33 0
16 *33:10 *57:33 0.000336659
17 *45:30 *57:8 0
18 *45:30 *57:33 0
*RES
1 *1090:X *57:8 45.5414 
2 *57:8 *1058:A 41.0918 
3 *57:8 *57:23 21.5038 
4 *57:23 *57:33 42.6574 
5 *57:33 *1055:B1 20 
6 *57:23 *1056:A 20 
*END

*D_NET *58 0.0126013
*CONN
*I *1063:A I *D sg13cmos5l_and2_1
*I *1041:A I *D sg13cmos5l_inv_1
*I *1069:A I *D sg13cmos5l_and2_1
*I *1066:A I *D sg13cmos5l_and2_1
*I *1109:X O *D sg13cmos5l_buf_1
*CAP
1 *1063:A 0
2 *1041:A 0
3 *1069:A 5.08741e-05
4 *1066:A 3.4601e-05
5 *1109:X 0.00104337
6 *58:40 0.00142129
7 *58:27 0.00190577
8 *58:14 0.00101837
9 *58:10 0.000672591
10 *58:6 0.0011658
11 *1069:A *1069:B 8.00842e-05
12 *58:14 *1043:D 0.000907266
13 *58:14 *1062:B 0.000769338
14 *58:27 *1043:A 0.000341292
15 *58:27 *1043:D 0.00076828
16 *58:27 *71:8 0.00048052
17 *58:27 *73:8 0
18 *58:27 *77:21 0
19 *58:27 *77:31 0
20 *58:40 *71:8 0
21 *1043:B *58:27 0
22 *1063:B *58:6 0
23 *43:9 *58:40 0
24 *44:8 *58:40 0
25 *44:16 *58:40 0
26 *44:22 *58:14 0.000983229
27 *44:22 *58:27 0.00095864
28 *44:51 *58:40 0
*RES
1 *1109:X *58:6 31.7832 
2 *58:6 *58:10 21.5862 
3 *58:10 *58:14 9.8159 
4 *58:14 *1066:A 40.3193 
5 *58:14 *58:27 8.3327 
6 *58:27 *1069:A 40.5356 
7 *58:27 *58:40 35.1822 
8 *58:40 *1041:A 20 
9 *58:10 *1063:A 40 
*END

*D_NET *59 0.00181416
*CONN
*I *1057:A1 I *D sg13cmos5l_a21oi_1
*I *1091:X O *D sg13cmos5l_dlygate4sd3_1
*CAP
1 *1057:A1 0.000592272
2 *1091:X 0.000592272
3 *1057:A1 *1060:A 4.79124e-05
4 *1057:A2 *1057:A1 0
5 *1057:B1 *1057:A1 0
6 *1061:A2 *1057:A1 0.00043656
7 *17:14 *1057:A1 0.000145141
*RES
1 *1091:X *1057:A1 46.3448 
*END

*D_NET *60 0.000382463
*CONN
*I *1072:D I *D sg13cmos5l_dfrbpq_1
*I *1092:X O *D sg13cmos5l_dlygate4sd3_1
*CAP
1 *1072:D 0.000102499
2 *1092:X 0.000102499
3 *1057:B1 *1072:D 0.000177466
4 *1072:RESET_B *1072:D 0
*RES
1 *1092:X *1072:D 41.1845 
*END

*D_NET *61 0.0036094
*CONN
*I *1060:A I *D sg13cmos5l_or3_1
*I *1059:B1 I *D sg13cmos5l_o21ai_1
*I *1093:X O *D sg13cmos5l_dlygate4sd3_1
*CAP
1 *1060:A 0.000476451
2 *1059:B1 0.000114212
3 *1093:X 0.000380812
4 *61:8 0.000971476
5 *1059:B1 *81:45 0.000340704
6 *61:8 *81:45 0.00127784
7 *1057:A1 *1060:A 4.79124e-05
8 *1057:A2 *1060:A 0
9 *1057:B1 *61:8 0
10 *1060:C *1060:A 0
11 *1061:A2 *1060:A 0
12 *1095:A *1060:A 0
13 *36:10 *61:8 0
*RES
1 *1093:X *61:8 46.0358 
2 *61:8 *1059:B1 41.5862 
3 *61:8 *1060:A 43.9964 
*END

*D_NET *62 0.000255216
*CONN
*I *1061:A1 I *D sg13cmos5l_a21oi_1
*I *1094:X O *D sg13cmos5l_dlygate4sd3_1
*CAP
1 *1061:A1 0.000127608
2 *1094:X 0.000127608
3 *1061:A2 *1061:A1 0
*RES
1 *1094:X *1061:A1 41.3802 
*END

*D_NET *63 0.000729694
*CONN
*I *1074:D I *D sg13cmos5l_dfrbpq_1
*I *1095:X O *D sg13cmos5l_dlygate4sd3_1
*CAP
1 *1074:D 0.00016611
2 *1095:X 8.11604e-05
3 *63:8 0.000247271
4 *1057:B1 *1074:D 0
5 *1074:RESET_B *1074:D 0
6 *17:14 *63:8 0.000235153
7 *45:30 *63:8 0
*RES
1 *1095:X *63:8 41.0918 
2 *63:8 *1074:D 41.6171 
*END

*D_NET *64 0.00317409
*CONN
*I *1051:B1 I *D sg13cmos5l_o21ai_1
*I *1052:A I *D sg13cmos5l_or3_1
*I *1096:X O *D sg13cmos5l_dlygate4sd3_1
*CAP
1 *1051:B1 0
2 *1052:A 0.000166153
3 *1096:X 0.000156357
4 *64:27 0.00012082
5 *64:12 0.000412082
6 *64:8 0.000281467
7 *64:8 *79:46 0
8 *1051:A2 *64:27 4.77425e-05
9 *1052:B *1052:A 0.000306925
10 *1052:B *64:12 0.000242017
11 *29:16 *64:27 0.000502289
12 *31:12 *1052:A 0.000209681
13 *31:12 *64:12 0.000226677
14 *45:19 *64:8 0
15 *45:19 *64:27 0.000501874
*RES
1 *1096:X *64:8 41.5862 
2 *64:8 *64:12 21.6171 
3 *64:12 *1052:A 22.0497 
4 *64:12 *64:27 42.6471 
5 *64:27 *1051:B1 20 
*END

*D_NET *65 0.000258496
*CONN
*I *1053:A1 I *D sg13cmos5l_a21oi_1
*I *1097:X O *D sg13cmos5l_dlygate4sd3_1
*CAP
1 *1053:A1 0.000121534
2 *1097:X 0.000121534
3 *1053:A1 *1070:D 0
4 *22:40 *1053:A1 0
5 *22:53 *1053:A1 1.54282e-05
*RES
1 *1097:X *1053:A1 41.3802 
*END

*D_NET *66 0.00117716
*CONN
*I *1070:D I *D sg13cmos5l_dfrbpq_1
*I *1098:X O *D sg13cmos5l_dlygate4sd3_1
*CAP
1 *1070:D 0.000354876
2 *1098:X 0.000354876
3 *1051:A1 *1070:D 0
4 *1053:A1 *1070:D 0
5 *1070:RESET_B *1070:D 0.000467406
6 *16:10 *1070:D 0
7 *22:40 *1070:D 0
8 *22:53 *1070:D 0
*RES
1 *1098:X *1070:D 43.9758 
*END

*D_NET *67 0.0018144
*CONN
*I *1047:B1 I *D sg13cmos5l_o21ai_1
*I *1048:A I *D sg13cmos5l_or3_1
*I *1099:X O *D sg13cmos5l_dlygate4sd3_1
*CAP
1 *1047:B1 3.04472e-05
2 *1048:A 0.000328105
3 *1099:X 0.000209174
4 *67:10 0.000567726
5 *1048:A *1114:A 0
6 *1048:A *68:8 0
7 *1048:A *79:31 0
8 *67:10 *79:31 0
9 *1047:A1 *1048:A 0.000663546
10 *1047:A2 *1047:B1 1.54008e-05
11 *1049:A2 *1048:A 0
12 *1084:RESET_B *67:10 0
13 *27:8 *1048:A 0
14 *27:8 *67:10 0
15 *49:50 *67:10 0
*RES
1 *1099:X *67:10 42.2454 
2 *67:10 *1048:A 44.1741 
3 *67:10 *1047:B1 40.3193 
*END

*D_NET *68 0.00160326
*CONN
*I *1049:A1 I *D sg13cmos5l_a21oi_1
*I *1100:X O *D sg13cmos5l_dlygate4sd3_1
*CAP
1 *1049:A1 0.000286077
2 *1100:X 0.00016009
3 *68:8 0.000446167
4 *1049:A1 *1114:A 0
5 *68:8 *1114:A 0
6 *1047:A1 *68:8 0
7 *1048:A *68:8 0
8 *1049:A2 *1049:A1 0.000501096
9 *44:51 *1049:A1 0.000209835
*RES
1 *1100:X *68:8 41.5862 
2 *68:8 *1049:A1 43.3475 
*END

*D_NET *69 0.0029269
*CONN
*I *1106:A I *D sg13cmos5l_dlygate4sd3_1
*I *1111:A I *D sg13cmos5l_buf_1
*I *1067:C I *D sg13cmos5l_nand3_1
*I *1064:B I *D sg13cmos5l_nand2_1
*I *1076:Q O *D sg13cmos5l_dfrbpq_1
*CAP
1 *1106:A 0.000234953
2 *1111:A 0.000609432
3 *1067:C 0.000177154
4 *1064:B 0
5 *1076:Q 0
6 *69:34 0.000932215
7 *69:10 0.000507362
8 *69:4 0.000418039
9 *1067:C *77:31 0
10 *1111:A *1062:B 0
11 *1076:RESET_B *1111:A 0
12 *1076:CLK *1106:A 0
13 *1078:RESET_B *1067:C 4.77425e-05
14 *3:10 *1111:A 0
15 *3:10 *69:34 0
16 *47:25 *1111:A 0
17 *47:25 *69:10 0
18 *47:25 *69:34 0
19 *47:36 *1067:C 0
*RES
1 *1076:Q *69:4 20 
2 *69:4 *69:10 23.5741 
3 *69:10 *1064:B 40 
4 *69:10 *1067:C 41.7304 
5 *69:4 *69:34 21.0918 
6 *69:34 *1111:A 46.695 
7 *69:34 *1106:A 42.4823 
*END

*D_NET *70 0.000349494
*CONN
*I *1084:D I *D sg13cmos5l_dfrbpq_1
*I *1101:X O *D sg13cmos5l_dlygate4sd3_1
*CAP
1 *1084:D 0.000174747
2 *1101:X 0.000174747
3 *1049:A2 *1084:D 0
4 *1084:RESET_B *1084:D 0
*RES
1 *1101:X *1084:D 41.7819 
*END

*D_NET *71 0.00277393
*CONN
*I *1068:A I *D sg13cmos5l_xnor2_1
*I *1043:A I *D sg13cmos5l_nand4_1
*I *1102:X O *D sg13cmos5l_dlygate4sd3_1
*CAP
1 *1068:A 0.00016093
2 *1043:A 0.000225841
3 *1102:X 0.000563955
4 *71:8 0.000950727
5 *1043:A *1043:C 0
6 *1068:A *1069:B 0
7 *1068:A *77:21 0
8 *1043:B *1043:A 1.98648e-05
9 *1068:B *1068:A 1.54008e-05
10 *24:8 *1043:A 1.54008e-05
11 *44:16 *1043:A 0
12 *44:16 *71:8 0
13 *58:27 *1043:A 0.000341292
14 *58:27 *71:8 0.00048052
15 *58:40 *71:8 0
*RES
1 *1102:X *71:8 46.0358 
2 *71:8 *1043:A 42.5544 
3 *71:8 *1068:A 41.4008 
*END

*D_NET *72 0.000447641
*CONN
*I *1069:B I *D sg13cmos5l_and2_1
*I *1103:X O *D sg13cmos5l_dlygate4sd3_1
*CAP
1 *1069:B 0.000183778
2 *1103:X 0.000183778
3 *1068:A *1069:B 0
4 *1069:A *1069:B 8.00842e-05
5 *1080:D *1069:B 0
*RES
1 *1103:X *1069:B 41.9982 
*END

*D_NET *73 0.00181476
*CONN
*I *1043:C I *D sg13cmos5l_nand4_1
*I *1065:A I *D sg13cmos5l_xnor2_1
*I *1104:X O *D sg13cmos5l_dlygate4sd3_1
*CAP
1 *1043:C 0.0003534
2 *1065:A 0.000262063
3 *1104:X 0.000170128
4 *73:10 0.000615463
5 *73:8 0.000170128
6 *1043:C *1043:D 0.000209676
7 *1043:C *77:21 0
8 *73:8 *77:21 0
9 *1043:B *1043:C 3.39041e-05
10 *1043:A *1043:C 0
11 *1065:B *1043:C 0
12 *1065:B *1065:A 0
13 *1105:A *1065:A 0
14 *44:22 *73:8 0
15 *58:27 *73:8 0
*RES
1 *1104:X *73:8 42.0806 
2 *73:8 *73:10 20 
3 *73:10 *1065:A 23.0797 
4 *73:10 *1043:C 23.6977 
*END

*D_NET *74 0.000568854
*CONN
*I *1066:B I *D sg13cmos5l_and2_1
*I *1105:X O *D sg13cmos5l_dlygate4sd3_1
*CAP
1 *1066:B 0.000273339
2 *1105:X 0.000273339
3 *1065:B *1066:B 2.21754e-05
4 *1078:D *1066:B 0
*RES
1 *1105:X *1066:B 43.1621 
*END

*D_NET *75 0.00460661
*CONN
*I *1043:D I *D sg13cmos5l_nand4_1
*I *1062:B I *D sg13cmos5l_xor2_1
*I *1106:X O *D sg13cmos5l_dlygate4sd3_1
*CAP
1 *1043:D 0.000641245
2 *1062:B 0.000294724
3 *1106:X 0
4 *75:6 0.000935969
5 *1043:B *1043:D 0
6 *1043:C *1043:D 0.000209676
7 *1063:B *1062:B 0
8 *1076:D *1062:B 8.01116e-05
9 *1078:RESET_B *1043:D 0
10 *1111:A *1062:B 0
11 *47:25 *1043:D 0
12 *47:25 *1062:B 0
13 *47:36 *1043:D 0
14 *58:14 *1043:D 0.000907266
15 *58:14 *1062:B 0.000769338
16 *58:27 *1043:D 0.00076828
*RES
1 *1106:X *75:6 40 
2 *75:6 *1062:B 44.0994 
3 *75:6 *1043:D 49.167 
*END

*D_NET *76 0.00203428
*CONN
*I *1042:A I *D sg13cmos5l_inv_1
*I *1107:X O *D sg13cmos5l_dlygate4sd3_1
*CAP
1 *1042:A 0
2 *1107:X 0.000489284
3 *76:8 0.000489284
4 *76:8 *1114:A 0.000661472
5 *22:40 *76:8 0
6 *23:8 *76:8 0
7 *25:10 *76:8 0.000394237
8 *44:51 *76:8 0
*RES
1 *1107:X *76:8 45.7886 
2 *76:8 *1042:A 40 
*END

*D_NET *77 0.00265924
*CONN
*I *1112:A I *D sg13cmos5l_buf_1
*I *1067:B I *D sg13cmos5l_nand3_1
*I *1104:A I *D sg13cmos5l_dlygate4sd3_1
*I *1078:Q O *D sg13cmos5l_dfrbpq_1
*CAP
1 *1112:A 0.000208324
2 *1067:B 0
3 *1104:A 0.000146708
4 *1078:Q 2.77263e-05
5 *77:31 0.000310905
6 *77:21 0.000949211
7 *77:6 0.000604416
8 *1043:B *77:31 2.20966e-05
9 *1043:C *77:21 0
10 *1067:C *77:31 0
11 *1068:A *77:21 0
12 *1068:B *1112:A 8.00842e-05
13 *24:12 *77:31 0.000181608
14 *41:8 *77:31 0
15 *44:16 *77:21 0
16 *44:16 *77:31 0.00012816
17 *47:36 *77:31 0
18 *58:27 *77:21 0
19 *58:27 *77:31 0
20 *73:8 *77:21 0
*RES
1 *1078:Q *77:6 20.3502 
2 *77:6 *1104:A 21.6171 
3 *77:6 *77:21 44.3466 
4 *77:21 *77:31 43.2445 
5 *77:31 *1067:B 20 
6 *77:21 *1112:A 22.266 
*END

*D_NET *78 0.00160436
*CONN
*I *1113:A I *D sg13cmos5l_buf_1
*I *1102:A I *D sg13cmos5l_dlygate4sd3_1
*I *1080:Q O *D sg13cmos5l_dfrbpq_1
*CAP
1 *1113:A 0.000376016
2 *1102:A 0.000426165
3 *1080:Q 0
4 *78:6 0.000802181
5 *3:10 *1102:A 0
6 *3:10 *1113:A 0
7 *24:12 *1102:A 0
8 *24:12 *1113:A 0
*RES
1 *1080:Q *78:6 40 
2 *78:6 *1102:A 44.5629 
3 *78:6 *1113:A 44.223 
*END

*D_NET *79 0.00769237
*CONN
*I *1107:A I *D sg13cmos5l_dlygate4sd3_1
*I *1058:D I *D sg13cmos5l_nand4_1
*I *1054:C I *D sg13cmos5l_nand3_1
*I *1050:B I *D sg13cmos5l_nand2_1
*I *1114:A I *D sg13cmos5l_buf_1
*I *1082:Q O *D sg13cmos5l_dfrbpq_1
*CAP
1 *1107:A 0
2 *1058:D 0.00015504
3 *1054:C 3.03288e-05
4 *1050:B 3.25769e-05
5 *1114:A 0.000458412
6 *1082:Q 0.000361507
7 *79:46 0.000782864
8 *79:31 0.000997024
9 *79:25 0.000439542
10 *79:8 0.000892509
11 *1054:C *1054:B 4.77425e-05
12 *1058:D *1054:A 0
13 *1058:D *1058:C 0.000211797
14 *1058:D *80:39 7.5374e-05
15 *1058:D *81:21 0
16 *1058:D *81:32 0
17 *79:31 *80:17 0.000235055
18 *79:46 *1096:A 0
19 *79:46 *80:17 0.00012816
20 *79:46 *80:28 0.00129626
21 *79:46 *80:39 0.000373402
22 *79:46 *81:21 0
23 *1045:B *1114:A 0.000209812
24 *1048:A *1114:A 0
25 *1048:A *79:31 0
26 *1049:A1 *1114:A 0
27 *1084:RESET_B *79:8 0
28 *22:40 *1114:A 0
29 *22:40 *79:25 0
30 *22:40 *79:31 0
31 *22:40 *79:46 0
32 *23:18 *1114:A 0
33 *29:8 *1050:B 1.54008e-05
34 *30:8 *79:46 0
35 *31:12 *79:46 0.000288087
36 *45:19 *79:46 0
37 *45:30 *79:46 0
38 *64:8 *79:46 0
39 *67:10 *79:31 0
40 *68:8 *1114:A 0
41 *76:8 *1114:A 0.000661472
*RES
1 *1082:Q *79:8 43.5638 
2 *79:8 *1114:A 46.1388 
3 *79:8 *79:25 20.9167 
4 *79:25 *79:31 24.8719 
5 *79:31 *1050:B 40.3193 
6 *79:31 *79:46 8.8992 
7 *79:46 *1054:C 40.3193 
8 *79:46 *1058:D 41.6583 
9 *79:25 *1107:A 20 
*END

*D_NET *80 0.00521487
*CONN
*I *1058:C I *D sg13cmos5l_nand4_1
*I *1054:B I *D sg13cmos5l_nand3_1
*I *1115:A I *D sg13cmos5l_buf_1
*I *1050:A I *D sg13cmos5l_nand2_1
*I *1099:A I *D sg13cmos5l_dlygate4sd3_1
*I *1084:Q O *D sg13cmos5l_dfrbpq_1
*CAP
1 *1058:C 0.000180712
2 *1054:B 4.38114e-05
3 *1115:A 0.000162625
4 *1050:A 0
5 *1099:A 2.77263e-05
6 *1084:Q 0.000138013
7 *80:39 0.000405598
8 *80:28 0.000890155
9 *80:17 0.000649535
10 *80:6 0.000268819
11 *1058:C *81:32 0
12 *1054:C *1054:B 4.77425e-05
13 *1055:A1 *1054:B 8.00842e-05
14 *1055:A1 *1115:A 0
15 *1056:B *1058:C 0
16 *1058:D *1058:C 0.000211797
17 *1058:D *80:39 7.5374e-05
18 *22:53 *1058:C 0
19 *22:53 *80:28 0
20 *22:53 *80:39 0
21 *29:8 *80:6 0
22 *49:50 *80:28 0
23 *49:95 *1058:C 0
24 *79:31 *80:17 0.000235055
25 *79:46 *80:17 0.00012816
26 *79:46 *80:28 0.00129626
27 *79:46 *80:39 0.000373402
*RES
1 *1084:Q *80:6 21.4008 
2 *80:6 *1099:A 20.3502 
3 *80:6 *80:17 21.5862 
4 *80:17 *1050:A 40 
5 *80:17 *80:28 6.5714 
6 *80:28 *1115:A 41.6171 
7 *80:28 *80:39 2.0806 
8 *80:39 *1054:B 40.5356 
9 *80:39 *1058:C 41.8746 
*END

*D_NET *81 0.00562058
*CONN
*I *1116:A I *D sg13cmos5l_buf_1
*I *1058:B I *D sg13cmos5l_nand4_1
*I *1054:A I *D sg13cmos5l_nand3_1
*I *1096:A I *D sg13cmos5l_dlygate4sd3_1
*I *1070:Q O *D sg13cmos5l_dfrbpq_1
*CAP
1 *1116:A 0
2 *1058:B 0
3 *1054:A 2.62019e-05
4 *1096:A 0.000202407
5 *1070:Q 0.00012062
6 *81:45 0.000702202
7 *81:32 0.0008201
8 *81:21 0.000263155
9 *81:8 0.000442081
10 *81:45 *82:8 0
11 *1055:A1 *81:8 0
12 *1058:C *81:32 0
13 *1058:A *81:45 0.000235141
14 *1058:D *1054:A 0
15 *1058:D *81:21 0
16 *1058:D *81:32 0
17 *1059:B1 *81:45 0.000340704
18 *1097:A *1096:A 0
19 *22:53 *81:32 0
20 *22:53 *81:45 0
21 *35:8 *81:45 0
22 *45:30 *1096:A 0
23 *45:30 *81:21 0
24 *45:30 *81:32 0
25 *45:30 *81:45 0
26 *48:8 *81:45 0
27 *57:8 *81:45 0.00119013
28 *61:8 *81:45 0.00127784
29 *79:46 *1096:A 0
30 *79:46 *81:21 0
*RES
1 *1070:Q *81:8 41.1845 
2 *81:8 *1096:A 41.9055 
3 *81:8 *81:21 1.0918 
4 *81:21 *1054:A 40.3193 
5 *81:21 *81:32 1.0918 
6 *81:32 *1058:B 40 
7 *81:32 *81:45 31.7626 
8 *81:45 *1116:A 20 
*END

*D_NET *82 0.00336592
*CONN
*I *1117:A I *D sg13cmos5l_buf_1
*I *1090:A I *D sg13cmos5l_dlygate4sd3_1
*I *1072:Q O *D sg13cmos5l_dfrbpq_1
*CAP
1 *1117:A 0
2 *1090:A 0.000225349
3 *1072:Q 0.000182318
4 *82:30 0.00121888
5 *82:24 0.00121888
6 *82:8 0.000407667
7 *1074:RESET_B *1090:A 0
8 *1074:CLK *1090:A 0.000112826
9 *1093:A *82:30 0
10 *48:23 *82:30 0
11 *81:45 *82:8 0
*RES
1 *1072:Q *82:8 42.3278 
2 *82:8 *1090:A 42.4823 
3 *1072:Q *82:24 40 
4 *82:24 *82:30 35.0689 
5 *82:30 *1117:A 20 
*END
